u120_17
150 120 52 56
58 0
85 0
37 1
68 1
69 2
47 2
63 3
37 1
53 3
90 4
85 5
88 6
68 7
100 8
86 9
93 10
26 2
44 4
77 7
72 11
46 5
58 6
44 8
49 9
100 12
72 11
76 13
74 14
78 15
30 3
79 16
30 10
88 17
29 12
70 13
69 14
26 10
53 15
86 18
48 16
55 17
30 18
95 19
22 16
79 20
94 21
54 19
43 20
84 22
51 21
80 23
90 24
61 22
43 23
71 25
72 25
82 26
83 27
91 28
56 24
42 26
45 27
80 29
73 30
62 29
95 31
53 28
40 30
42 31
63 32
80 32
79 33
86 34
59 33
22 18
62 34
72 35
51 35
60 36
55 36
56 37
92 37
56 38
55 38
51 39
34 30
100 40
89 39
64 41
99 42
87 43
74 41
38 38
28 36
50 42
86 44
92 45
98 46
30 40
30 43
89 47
51 44
65 48
31 43
60 47
85 49
79 48
39 45
27 20
61 49
84 50
41 46
53 50
77 51
77 52
94 53
86 54
91 55
49 51
47 52